c 
p cnf 10 40
6 0
10 -8 -6 0
-5 0
3 9 -5 -2 -10 0
1 2 -5 0
5 3 0
-10 0
-7 6 -9 2 0
-7 -8 -2 0
6 -5 9 -2 0
9 -10 0
2 -8 10 3 0
-10 -3 7 2 1 0
10 0
-5 6 0
-3 -6 9 7 2 0
-6 4 9 0
1 8 -4 0
-8 -7 -10 1 0
-8 4 0
5 9 -6 -2 0
6 0
3 4 6 1 10 0
-2 0
6 7 10 0
-4 0
-4 10 2 0
-2 0
5 7 0
-2 4 -1 0
3 2 0
4 -10 1 2 -9 0
1 -4 -5 6 0
-4 10 0
2 5 1 -6 -10 0
-4 -8 -9 0
-3 10 8 -9 0
-4 -8 -5 -7 0
-1 7 -10 0
6 -7 3 -5 0
